sat
(model
(define-fun |label_order(nWeight(1),1)| () Bool true)
(define-fun |required(ezcsp__gt(nWeight(3),ezcsp__mn(ezcsp__pl(97,70),70)))| () Bool false)
(define-fun |required(ezcsp__gt(nWeight(5),ezcsp__mn(ezcsp__pl(98,72),72)))| () Bool false)
(define-fun |leaf(8)| () Bool true)
(define-fun |required(ezcsp__eq(nWeight(3),170))| () Bool false)
(define-fun |required(ezcsp__gt(nWeight(4),ezcsp__mn(ezcsp__pl(98,72),72)))| () Bool false)
(define-fun |leafCost(6,41)| () Bool true)
(define-fun |leafPos(3,3)| () Bool false)
(define-fun |required(ezcsp__eq(nWeight(5),ezcsp__pl(nWeight(4),70)))| () Bool false)
(define-fun |required(ezcsp__eq(nWeight(5),ezcsp__pl(nWeight(4),9)))| () Bool false)
(define-fun |posColor(4,green)| () Bool false)
(define-fun |required(ezcsp__leq(nWeight(2),ezcsp__mn(ezcsp__pl(76,52),52)))| () Bool false)
(define-fun |required(ezcsp__eq(nWeight(2),85))| () Bool false)
(define-fun |cspvar(nWeight(5),0,497)| () Bool true)
(define-fun |posColor(3,green)| () Bool false)
(define-fun |location(4)| () Bool true)
(define-fun |required(ezcsp__leq(nWeight(5),ezcsp__mn(ezcsp__pl(9,21),9)))| () Bool false)
(define-fun |posColor(3,blue)| () Bool true)
(define-fun |required(ezcsp__gt(nWeight(1),ezcsp__mn(ezcsp__pl(76,52),52)))| () Bool false)
(define-fun |leafPos(1,7)| () Bool true)
(define-fun |required(ezcsp__eq(nWeight(1),148))| () Bool false)
(define-fun |required(ezcsp__gt(nWeight(5),ezcsp__mn(ezcsp__pl(97,70),70)))| () Bool false)
(define-fun |posColor(1,red)| () Bool false)
(define-fun |required(ezcsp__eq(nWeight(5),128))| () Bool false)
(define-fun |required(ezcsp__eq(nWeight(4),26))| () Bool false)
(define-fun |posColor(3,red)| () Bool false)
(define-fun |required(ezcsp__gt(nWeight(1),ezcsp__mn(ezcsp__pl(97,70),70)))| () Bool false)
(define-fun |required(ezcsp__eq(nWeight(3),123))| () Bool false)
(define-fun |posColor(7,green)| () Bool false)
(define-fun |leafPos(5,7)| () Bool false)
(define-fun |required(ezcsp__leq(nWeight(4),ezcsp__mn(ezcsp__pl(36,87),36)))| () Bool false)
(define-fun |required(ezcsp__eq(nWeight(1),96))| () Bool false)
(define-fun |leafPos(5,0)| () Bool false)
(define-fun |leafPos(6,3)| () Bool true)
(define-fun |leafPos(8,6)| () Bool false)
(define-fun |required(ezcsp__gt(nWeight(4),ezcsp__mn(ezcsp__pl(36,87),36)))| () Bool false)
(define-fun 449 () Bool true)
(define-fun 448 () Bool false)
(define-fun 443 () Bool false)
(define-fun 442 () Bool false)
(define-fun 441 () Bool false)
(define-fun 440 () Bool false)
(define-fun 447 () Bool false)
(define-fun 446 () Bool false)
(define-fun 445 () Bool false)
(define-fun |leafPos(7,3)| () Bool false)
(define-fun |leafPos(2,7)| () Bool false)
(define-fun 108 () Bool true)
(define-fun 109 () Bool true)
(define-fun |required(ezcsp__eq(nWeight(1),50))| () Bool false)
(define-fun |leafCost(4,11)| () Bool true)
(define-fun |cspvar(nWeight(1),0,497)| () Bool true)
(define-fun |leafPos(6,4)| () Bool false)
(define-fun |required(ezcsp__eq(nWeight(1),128))| () Bool false)
(define-fun |required(ezcsp__gt(nWeight(3),ezcsp__mn(ezcsp__pl(36,87),36)))| () Bool false)
(define-fun |leafPos(4,5)| () Bool false)
(define-fun 438 () Bool false)
(define-fun 439 () Bool false)
(define-fun 436 () Bool false)
(define-fun 437 () Bool false)
(define-fun 434 () Bool false)
(define-fun 435 () Bool false)
(define-fun 432 () Bool false)
(define-fun 433 () Bool false)
(define-fun 430 () Bool false)
(define-fun 431 () Bool false)
(define-fun |innerNode(7)| () Bool true)
(define-fun |leafPos(2,0)| () Bool false)
(define-fun 423 () Bool false)
(define-fun |required(ezcsp__eq(nWeight(1),72))| () Bool false)
(define-fun |required(ezcsp__eq(nWeight(1),117))| () Bool false)
(define-fun |posColor(6,green)| () Bool false)
(define-fun |required(ezcsp__eq(nWeight(6),170))| () Bool false)
(define-fun |leaf(3)| () Bool true)
(define-fun |required(ezcsp__eq(nWeight(4),ezcsp__pl(nWeight(3),11)))| () Bool false)
(define-fun |required(ezcsp__leq(nWeight(4),ezcsp__mn(ezcsp__pl(9,21),9)))| () Bool false)
(define-fun |posColor(6,red)| () Bool true)
(define-fun |required(ezcsp__leq(nWeight(2),ezcsp__mn(ezcsp__pl(9,21),9)))| () Bool false)
(define-fun |required(ezcsp__eq(nWeight(7),ezcsp__pl(nWeight(6),72)))| () Bool false)
(define-fun |color(red)| () Bool true)
(define-fun 99 () Bool true)
(define-fun 98 () Bool true)
(define-fun |leafPos(1,2)| () Bool false)
(define-fun |required(ezcsp__eq(nWeight(2),26))| () Bool false)
(define-fun |required(ezcsp__leq(nWeight(4),ezcsp__mn(ezcsp__pl(98,72),72)))| () Bool false)
(define-fun |required(ezcsp__eq(nWeight(3),85))| () Bool false)
(define-fun |leafPos(3,7)| () Bool false)
(define-fun |required(ezcsp__gt(nWeight(2),ezcsp__mn(ezcsp__pl(36,87),36)))| () Bool false)
(define-fun |required(ezcsp__gt(nWeight(1),ezcsp__mn(ezcsp__pl(9,21),9)))| () Bool false)
(define-fun |max_total_weight(497)| () Bool true)
(define-fun |posColor(7,blue)| () Bool true)
(define-fun |required(ezcsp__eq(nWeight(1),139))| () Bool false)
(define-fun |location(0)| () Bool true)
(define-fun |required(ezcsp__eq(nWeight(7),ezcsp__pl(nWeight(6),41)))| () Bool false)
(define-fun |required(ezcsp__eq(nWeight(1),112))| () Bool false)
(define-fun |coloredPos(3)| () Bool true)
(define-fun 146 () Bool true)
(define-fun 147 () Bool true)
(define-fun |required(ezcsp__leq(nWeight(5),ezcsp__mn(ezcsp__pl(76,52),52)))| () Bool false)
(define-fun |required(ezcsp__leq(nWeight(3),ezcsp__mn(ezcsp__pl(9,21),9)))| () Bool false)
(define-fun |required(ezcsp__eq(nWeight(6),ezcsp__pl(nWeight(5),9)))| () Bool false)
(define-fun |required(ezcsp__gt(nWeight(2),ezcsp__mn(ezcsp__pl(76,9),9)))| () Bool false)
(define-fun |leafPos(5,3)| () Bool false)
(define-fun |innerNode(6)| () Bool true)
(define-fun |required(ezcsp__gt(nWeight(1),ezcsp__mn(ezcsp__pl(36,87),36)))| () Bool false)
(define-fun |required(ezcsp__leq(nWeight(5),ezcsp__mn(ezcsp__pl(36,87),36)))| () Bool true)
(define-fun |leafPos(6,0)| () Bool false)
(define-fun |leafPos(8,3)| () Bool false)
(define-fun |leafPos(4,1)| () Bool true)
(define-fun |required(ezcsp__leq(nWeight(4),ezcsp__mn(ezcsp__pl(15,11),11)))| () Bool false)
(define-fun |posColor(1,green)| () Bool true)
(define-fun |required(ezcsp__leq(nWeight(1),ezcsp__mn(ezcsp__pl(97,70),70)))| () Bool false)
(define-fun |leafPos(7,6)| () Bool false)
(define-fun |innerNode(3)| () Bool true)
(define-fun |leafPos(2,4)| () Bool false)
(define-fun |required(ezcsp__eq(nWeight(1),133))| () Bool false)
(define-fun |coloredPos(2)| () Bool true)
(define-fun 498 () Bool false)
(define-fun 499 () Bool false)
(define-fun 129 () Bool true)
(define-fun 494 () Bool false)
(define-fun 495 () Bool false)
(define-fun 139 () Bool true)
(define-fun 138 () Bool true)
(define-fun 490 () Bool false)
(define-fun 491 () Bool false)
(define-fun 492 () Bool false)
(define-fun 493 () Bool false)
(define-fun |leaf(7)| () Bool true)
(define-fun |leafPos(4,6)| () Bool false)
(define-fun 407 () Bool false)
(define-fun 406 () Bool false)
(define-fun 405 () Bool false)
(define-fun |required(ezcsp__eq(nWeight(1),134))| () Bool false)
(define-fun |posColor(2,green)| () Bool false)
(define-fun |leafWeightCardinality(3,98,72)| () Bool true)
(define-fun 409 () Bool false)
(define-fun 408 () Bool false)
(define-fun |required(ezcsp__leq(nWeight(6),ezcsp__mn(ezcsp__pl(87,41),41)))| () Bool false)
(define-fun |cspvar(nWeight(4),0,497)| () Bool true)
(define-fun |posColor(5,green)| () Bool true)
(define-fun |required(ezcsp__eq(nWeight(7),ezcsp__pl(nWeight(6),11)))| () Bool false)
(define-fun |required(ezcsp__eq(nWeight(2),ezcsp__pl(nWeight(1),70)))| () Bool false)
(define-fun |required(ezcsp__gt(nWeight(4),ezcsp__mn(ezcsp__pl(76,9),9)))| () Bool false)
(define-fun |required(ezcsp__eq(nWeight(1),77))| () Bool false)
(define-fun |required(ezcsp__leq(nWeight(6),ezcsp__mn(ezcsp__pl(97,70),70)))| () Bool false)
(define-fun |required(ezcsp__eq(nWeight(5),ezcsp__pl(nWeight(4),72)))| () Bool false)
(define-fun |required(ezcsp__eq(nWeight(5),123))| () Bool false)
(define-fun |required(ezcsp__eq(nWeight(4),123))| () Bool false)
(define-fun |posColor(7,red)| () Bool false)
(define-fun |required(ezcsp__eq(nWeight(3),ezcsp__pl(nWeight(2),36)))| () Bool false)
(define-fun |required(ezcsp__gt(nWeight(3),ezcsp__mn(ezcsp__pl(98,72),72)))| () Bool false)
(define-fun |innerNode(4)| () Bool true)
(define-fun 88 () Bool true)
(define-fun 89 () Bool true)
(define-fun |required(ezcsp__eq(nWeight(4),ezcsp__pl(nWeight(3),52)))| () Bool false)
(define-fun |required(ezcsp__eq(nWeight(2),30))| () Bool false)
(define-fun |location(7)| () Bool true)
(define-fun |required(ezcsp__eq(nWeight(7),30))| () Bool false)
(define-fun |required(ezcsp__eq(nWeight(1),30))| () Bool false)
(define-fun |leafPos(1,6)| () Bool false)
(define-fun |leafPos(3,2)| () Bool false)
(define-fun |cspvar(nWeight(2),0,497)| () Bool true)
(define-fun |required(ezcsp__eq(nWeight(6),ezcsp__pl(nWeight(5),72)))| () Bool false)
(define-fun |required(ezcsp__eq(nWeight(5),ezcsp__pl(nWeight(4),41)))| () Bool false)
(define-fun |color(blue)| () Bool true)
(define-fun |label_order(nWeight(7),1)| () Bool true)
(define-fun |required(ezcsp__eq(nWeight(1),98))| () Bool false)
(define-fun |leafCost(5,70)| () Bool true)
(define-fun |leafPos(5,6)| () Bool false)
(define-fun |required(ezcsp__gt(nWeight(2),ezcsp__mn(ezcsp__pl(87,41),41)))| () Bool false)
(define-fun |required(ezcsp__gt(nWeight(6),ezcsp__mn(ezcsp__pl(76,9),9)))| () Bool false)
(define-fun |leafCost(3,72)| () Bool true)
(define-fun |leafPos(8,7)| () Bool false)
(define-fun |leafCost(2,36)| () Bool true)
(define-fun 458 () Bool false)
(define-fun 459 () Bool false)
(define-fun |required(ezcsp__eq(nWeight(4),ezcsp__pl(nWeight(3),72)))| () Bool false)
(define-fun |required(ezcsp__eq(nWeight(6),30))| () Bool false)
(define-fun |leafPos(7,2)| () Bool true)
(define-fun 451 () Bool false)
(define-fun 452 () Bool false)
(define-fun 453 () Bool false)
(define-fun 454 () Bool false)
(define-fun 455 () Bool false)
(define-fun 456 () Bool false)
(define-fun 457 () Bool false)
(define-fun 172 () Bool true)
(define-fun 171 () Bool true)
(define-fun |required(ezcsp__eq(nWeight(1),146))| () Bool false)
(define-fun |leafPos(6,5)| () Bool false)
(define-fun |required(ezcsp__eq(nWeight(3),ezcsp__pl(nWeight(2),11)))| () Bool false)
(define-fun |leafPos(4,2)| () Bool false)
(define-fun |coloredPos(7)| () Bool true)
(define-fun |leafPos(2,1)| () Bool false)
(define-fun |required(ezcsp__gt(nWeight(3),ezcsp__mn(ezcsp__pl(15,11),11)))| () Bool false)
(define-fun |required(ezcsp__gt(nWeight(1),ezcsp__mn(ezcsp__pl(87,41),41)))| () Bool false)
(define-fun |leafWeightCardinality(2,36,87)| () Bool true)
(define-fun |required(ezcsp__eq(nWeight(6),167))| () Bool false)
(define-fun |leaf(4)| () Bool true)
(define-fun |leafPos(7,5)| () Bool false)
(define-fun |required(ezcsp__eq(nWeight(1),149))| () Bool false)
(define-fun |required(ezcsp__eq(nWeight(3),ezcsp__pl(nWeight(2),52)))| () Bool false)
(define-fun |required(ezcsp__leq(nWeight(3),ezcsp__mn(ezcsp__pl(98,72),72)))| () Bool false)
(define-fun |required(ezcsp__eq(nWeight(5),26))| () Bool false)
(define-fun |required(ezcsp__eq(nWeight(5),167))| () Bool false)
(define-fun |required(ezcsp__leq(nWeight(3),ezcsp__mn(ezcsp__pl(15,11),11)))| () Bool false)
(define-fun |required(ezcsp__sum(list(nWeight,1),ezcsp__leq,497))| () Bool true)
(define-fun |required(ezcsp__eq(nWeight(1),168))| () Bool false)
(define-fun |required(ezcsp__gt(nWeight(3),ezcsp__mn(ezcsp__pl(76,9),9)))| () Bool false)
(define-fun |leafPos(1,1)| () Bool false)
(define-fun |leafPos(3,1)| () Bool false)
(define-fun |leafPos(3,6)| () Bool false)
(define-fun |required(ezcsp__eq(nWeight(7),ezcsp__pl(nWeight(6),52)))| () Bool true)
(define-fun |required(ezcsp__gt(nWeight(6),ezcsp__mn(ezcsp__pl(87,41),41)))| () Bool false)
(define-fun |required(ezcsp__gt(nWeight(4),ezcsp__mn(ezcsp__pl(76,52),52)))| () Bool false)
(define-fun |required(ezcsp__gt(nWeight(4),ezcsp__mn(ezcsp__pl(97,70),70)))| () Bool false)
(define-fun |required(ezcsp__leq(nWeight(6),ezcsp__mn(ezcsp__pl(15,11),11)))| () Bool false)
(define-fun |required(ezcsp__eq(nWeight(1),79))| () Bool false)
(define-fun |required(ezcsp__gt(nWeight(5),ezcsp__mn(ezcsp__pl(36,87),36)))| () Bool false)
(define-fun |leafCost(8,9)| () Bool true)
(define-fun |required(ezcsp__gt(nWeight(6),ezcsp__mn(ezcsp__pl(97,70),70)))| () Bool false)
(define-fun |required(ezcsp__eq(nWeight(5),85))| () Bool false)
(define-fun |required(ezcsp__leq(nWeight(6),ezcsp__mn(ezcsp__pl(76,52),52)))| () Bool true)
(define-fun |required(ezcsp__eq(nWeight(1),18))| () Bool false)
(define-fun |required(ezcsp__eq(nWeight(1),81))| () Bool false)
(define-fun 79 () Bool true)
(define-fun 78 () Bool true)
(define-fun |location(3)| () Bool true)
(define-fun |leafCost(1,52)| () Bool true)
(define-fun |required(ezcsp__gt(nWeight(2),ezcsp__mn(ezcsp__pl(15,11),11)))| () Bool false)
(define-fun |required(ezcsp__gt(nWeight(1),ezcsp__mn(ezcsp__pl(76,9),9)))| () Bool false)
(define-fun |posColor(5,blue)| () Bool false)
(define-fun |required(ezcsp__eq(nWeight(4),30))| () Bool false)
(define-fun |posColor(2,blue)| () Bool true)
(define-fun |required(ezcsp__gt(nWeight(5),ezcsp__mn(ezcsp__pl(76,9),9)))| () Bool false)
(define-fun |required(ezcsp__eq(nWeight(1),24))| () Bool false)
(define-fun |required(ezcsp__eq(nWeight(6),ezcsp__pl(nWeight(5),52)))| () Bool false)
(define-fun |required(ezcsp__gt(nWeight(6),ezcsp__mn(ezcsp__pl(36,87),36)))| () Bool false)
(define-fun |required(ezcsp__leq(nWeight(6),ezcsp__mn(ezcsp__pl(76,9),9)))| () Bool false)
(define-fun |required(ezcsp__eq(nWeight(3),ezcsp__pl(nWeight(2),70)))| () Bool false)
(define-fun |leafPos(5,2)| () Bool false)
(define-fun |required(ezcsp__eq(nWeight(3),ezcsp__pl(nWeight(2),9)))| () Bool false)
(define-fun |required(ezcsp__leq(nWeight(2),ezcsp__mn(ezcsp__pl(87,41),41)))| () Bool true)
(define-fun |leafPos(6,1)| () Bool false)
(define-fun |required(ezcsp__gt(nWeight(3),ezcsp__mn(ezcsp__pl(87,41),41)))| () Bool false)
(define-fun |leafPos(8,0)| () Bool false)
(define-fun |required(ezcsp__eq(nWeight(2),ezcsp__pl(nWeight(1),41)))| () Bool false)
(define-fun |required(ezcsp__gt(nWeight(6),ezcsp__mn(ezcsp__pl(15,11),11)))| () Bool false)
(define-fun |leafPos(7,1)| () Bool false)
(define-fun |required(ezcsp__eq(nWeight(2),ezcsp__pl(nWeight(1),36)))| () Bool false)
(define-fun |required(ezcsp__eq(nWeight(1),169))| () Bool false)
(define-fun |leafPos(2,5)| () Bool false)
(define-fun |leafWeightCardinality(4,15,11)| () Bool true)
(define-fun |required(ezcsp__leq(nWeight(3),ezcsp__mn(ezcsp__pl(36,87),36)))| () Bool false)
(define-fun |leaf(1)| () Bool true)
(define-fun 128 () Bool true)
(define-fun |required(ezcsp__eq(nWeight(1),150))| () Bool false)
(define-fun |required(ezcsp__gt(nWeight(4),ezcsp__mn(ezcsp__pl(15,11),11)))| () Bool false)
(define-fun |label_order(nWeight(4),1)| () Bool true)
(define-fun |leafPos(4,7)| () Bool false)
(define-fun 414 () Bool false)
(define-fun 415 () Bool false)
(define-fun 416 () Bool false)
(define-fun 417 () Bool false)
(define-fun 410 () Bool false)
(define-fun 411 () Bool false)
(define-fun 412 () Bool false)
(define-fun 413 () Bool false)
(define-fun |label_order(nWeight(5),1)| () Bool true)
(define-fun |required(ezcsp__gt(nWeight(3),ezcsp__mn(ezcsp__pl(76,52),52)))| () Bool false)
(define-fun 418 () Bool false)
(define-fun 419 () Bool false)
(define-fun |required(ezcsp__eq(nWeight(1),45))| () Bool false)
(define-fun |required(ezcsp__eq(nWeight(4),167))| () Bool false)
(define-fun |label_order(nWeight(2),1)| () Bool true)
(define-fun |required(ezcsp__eq(nWeight(6),ezcsp__pl(nWeight(5),70)))| () Bool false)
(define-fun 496 () Bool true)
(define-fun |required(ezcsp__gt(nWeight(2),ezcsp__mn(ezcsp__pl(76,52),52)))| () Bool false)
(define-fun |required(ezcsp__gt(nWeight(4),ezcsp__mn(ezcsp__pl(9,21),9)))| () Bool true)
(define-fun 497 () Bool false)
(define-fun |required(ezcsp__eq(nWeight(6),ezcsp__pl(nWeight(5),36)))| () Bool true)
(define-fun |posColor(5,red)| () Bool false)
(define-fun |cspvar(nWeight(7),0,497)| () Bool true)
(define-fun |required(ezcsp__eq(nWeight(1),138))| () Bool false)
(define-fun |required(ezcsp__eq(nWeight(1),56))| () Bool false)
(define-fun |coloredPos(4)| () Bool true)
(define-fun |innerNode(5)| () Bool true)
(define-fun |required(ezcsp__eq(nWeight(2),ezcsp__pl(nWeight(1),9)))| () Bool true)
(define-fun |required(ezcsp__leq(nWeight(3),ezcsp__mn(ezcsp__pl(87,41),41)))| () Bool false)
(define-fun |required(ezcsp__eq(nWeight(1),61))| () Bool false)
(define-fun |color(green)| () Bool true)
(define-fun |required(ezcsp__leq(nWeight(5),ezcsp__mn(ezcsp__pl(87,41),41)))| () Bool false)
(define-fun 444 () Bool false)
(define-fun |leafPos(3,5)| () Bool false)
(define-fun |required(ezcsp__eq(nWeight(2),167))| () Bool false)
(define-fun |required(ezcsp__eq(nWeight(4),ezcsp__pl(nWeight(3),70)))| () Bool true)
(define-fun |required(ezcsp__gt(nWeight(5),ezcsp__mn(ezcsp__pl(15,11),11)))| () Bool false)
(define-fun |leafPos(1,5)| () Bool false)
(define-fun |required(ezcsp__eq(nWeight(4),85))| () Bool false)
(define-fun |required(ezcsp__eq(nWeight(4),ezcsp__pl(nWeight(3),36)))| () Bool false)
(define-fun |num(8)| () Bool true)
(define-fun |leafPos(8,4)| () Bool false)
(define-fun |required(ezcsp__gt(nWeight(6),ezcsp__mn(ezcsp__pl(76,52),52)))| () Bool false)
(define-fun |required(ezcsp__eq(nWeight(3),30))| () Bool false)
(define-fun 67 () Bool true)
(define-fun 68 () Bool true)
(define-fun 69 () Bool false)
(define-fun |leafPos(5,5)| () Bool false)
(define-fun |required(ezcsp__eq(nWeight(6),85))| () Bool false)
(define-fun |location(6)| () Bool true)
(define-fun |cspvar(nWeight(3),0,497)| () Bool true)
(define-fun |required(ezcsp__eq(nWeight(7),26))| () Bool false)
(define-fun 404 () Bool true)
(define-fun |required(ezcsp__eq(nWeight(1),159))| () Bool false)
(define-fun 506 () Bool false)
(define-fun 507 () Bool false)
(define-fun 504 () Bool false)
(define-fun 505 () Bool false)
(define-fun 502 () Bool false)
(define-fun 503 () Bool false)
(define-fun 500 () Bool false)
(define-fun 501 () Bool false)
(define-fun |required(ezcsp__eq(nWeight(1),170))| () Bool false)
(define-fun 469 () Bool false)
(define-fun 468 () Bool false)
(define-fun 465 () Bool false)
(define-fun 464 () Bool false)
(define-fun 467 () Bool false)
(define-fun 466 () Bool false)
(define-fun 461 () Bool false)
(define-fun 460 () Bool false)
(define-fun 463 () Bool false)
(define-fun 462 () Bool false)
(define-fun |required(ezcsp__eq(nWeight(7),85))| () Bool false)
(define-fun 166 () Bool true)
(define-fun 167 () Bool true)
(define-fun 161 () Bool true)
(define-fun 162 () Bool true)
(define-fun |required(ezcsp__eq(nWeight(1),107))| () Bool false)
(define-fun |leafPos(6,6)| () Bool false)
(define-fun |required(ezcsp__gt(nWeight(6),ezcsp__mn(ezcsp__pl(98,72),72)))| () Bool false)
(define-fun |required(ezcsp__eq(nWeight(1),167))| () Bool false)
(define-fun |required(ezcsp__leq(nWeight(1),ezcsp__mn(ezcsp__pl(15,11),11)))| () Bool false)
(define-fun |required(ezcsp__eq(nWeight(1),85))| () Bool false)
(define-fun |required(ezcsp__leq(nWeight(6),ezcsp__mn(ezcsp__pl(9,21),9)))| () Bool false)
(define-fun |leafPos(4,3)| () Bool false)
(define-fun |required(ezcsp__eq(nWeight(2),128))| () Bool false)
(define-fun |required(ezcsp__leq(nWeight(3),ezcsp__mn(ezcsp__pl(76,9),9)))| () Bool false)
(define-fun |innerNode(1)| () Bool true)
(define-fun |leafPos(2,2)| () Bool false)
(define-fun |leafWeightCardinality(8,9,21)| () Bool true)
(define-fun |required(ezcsp__gt(nWeight(5),ezcsp__mn(ezcsp__pl(9,21),9)))| () Bool false)
(define-fun |required(ezcsp__leq(nWeight(1),ezcsp__mn(ezcsp__pl(98,72),72)))| () Bool false)
(define-fun |required(ezcsp__leq(nWeight(2),ezcsp__mn(ezcsp__pl(15,11),11)))| () Bool false)
(define-fun |leaf(5)| () Bool true)
(define-fun |cspvar(nWeight(6),0,497)| () Bool true)
(define-fun |required(ezcsp__eq(nWeight(5),30))| () Bool true)
(define-fun |required(ezcsp__gt(nWeight(2),ezcsp__mn(ezcsp__pl(97,70),70)))| () Bool false)
(define-fun |leafPos(7,4)| () Bool false)
(define-fun |required(ezcsp__eq(nWeight(1),157))| () Bool false)
(define-fun |required(ezcsp__eq(nWeight(4),ezcsp__pl(nWeight(3),41)))| () Bool false)
(define-fun |required(ezcsp__leq(nWeight(4),ezcsp__mn(ezcsp__pl(87,41),41)))| () Bool false)
(define-fun |required(ezcsp__leq(nWeight(1),ezcsp__mn(ezcsp__pl(87,41),41)))| () Bool false)
(define-fun |required(ezcsp__eq(nWeight(7),170))| () Bool false)
(define-fun |leafPos(3,0)| () Bool true)
(define-fun |required(ezcsp__eq(nWeight(2),ezcsp__pl(nWeight(1),52)))| () Bool false)
(define-fun |required(ezcsp__eq(nWeight(1),109))| () Bool false)
(define-fun |required(ezcsp__eq(nWeight(1),67))| () Bool false)
(define-fun |required(ezcsp__eq(nWeight(1),20))| () Bool false)
(define-fun |posColor(2,red)| () Bool false)
(define-fun |required(ezcsp__eq(nWeight(6),123))| () Bool false)
(define-fun |location(5)| () Bool true)
(define-fun |required(ezcsp__leq(nWeight(3),ezcsp__mn(ezcsp__pl(97,70),70)))| () Bool true)
(define-fun |leafPos(1,0)| () Bool false)
(define-fun |required(ezcsp__eq(nWeight(4),ezcsp__pl(nWeight(3),9)))| () Bool false)
(define-fun |required(ezcsp__gt(nWeight(3),ezcsp__mn(ezcsp__pl(9,21),9)))| () Bool false)
(define-fun |location(2)| () Bool true)
(define-fun |required(ezcsp__gt(nWeight(6),ezcsp__mn(ezcsp__pl(9,21),9)))| () Bool false)
(define-fun |label_order(nWeight(6),1)| () Bool true)
(define-fun |required(ezcsp__leq(nWeight(1),ezcsp__mn(ezcsp__pl(76,52),52)))| () Bool false)
(define-fun |required(ezcsp__leq(nWeight(4),ezcsp__mn(ezcsp__pl(97,70),70)))| () Bool false)
(define-fun |leafCost(7,9)| () Bool true)
(define-fun |required(ezcsp__eq(nWeight(3),167))| () Bool false)
(define-fun |required(ezcsp__gt(nWeight(2),ezcsp__mn(ezcsp__pl(98,72),72)))| () Bool false)
(define-fun |required(ezcsp__leq(nWeight(6),ezcsp__mn(ezcsp__pl(36,87),36)))| () Bool false)
(define-fun |required(ezcsp__eq(nWeight(6),26))| () Bool false)
(define-fun |required(ezcsp__eq(nWeight(4),170))| () Bool false)
(define-fun |required(ezcsp__leq(nWeight(3),ezcsp__mn(ezcsp__pl(76,52),52)))| () Bool false)
(define-fun |required(ezcsp__eq(nWeight(1),88))| () Bool false)
(define-fun |required(ezcsp__eq(nWeight(1),106))| () Bool false)
(define-fun |required(ezcsp__eq(nWeight(3),ezcsp__pl(nWeight(2),72)))| () Bool false)
(define-fun |posColor(4,red)| () Bool false)
(define-fun |required(ezcsp__leq(nWeight(4),ezcsp__mn(ezcsp__pl(76,52),52)))| () Bool false)
(define-fun |required(ezcsp__eq(nWeight(5),ezcsp__pl(nWeight(4),36)))| () Bool false)
(define-fun |leafPos(5,1)| () Bool false)
(define-fun |required(ezcsp__eq(nWeight(6),128))| () Bool false)
(define-fun |required(ezcsp__eq(nWeight(1),123))| () Bool false)
(define-fun |leafPos(6,2)| () Bool false)
(define-fun |leafPos(8,1)| () Bool false)
(define-fun |leafPos(7,0)| () Bool false)
(define-fun |required(ezcsp__eq(nWeight(7),ezcsp__pl(nWeight(6),9)))| () Bool false)
(define-fun |leafWeightCardinality(6,87,41)| () Bool true)
(define-fun |leaf(2)| () Bool true)
(define-fun |required(ezcsp__gt(nWeight(4),ezcsp__mn(ezcsp__pl(87,41),41)))| () Bool false)
(define-fun |leafPos(2,6)| () Bool true)
(define-fun 119 () Bool true)
(define-fun 118 () Bool true)
(define-fun |posColor(1,blue)| () Bool false)
(define-fun |leafPos(4,4)| () Bool false)
(define-fun |required(ezcsp__leq(nWeight(2),ezcsp__mn(ezcsp__pl(97,70),70)))| () Bool false)
(define-fun 429 () Bool false)
(define-fun 428 () Bool false)
(define-fun 421 () Bool true)
(define-fun 420 () Bool false)
(define-fun |posColor(4,blue)| () Bool true)
(define-fun 422 () Bool false)
(define-fun 425 () Bool false)
(define-fun 424 () Bool false)
(define-fun 427 () Bool false)
(define-fun 426 () Bool false)
(define-fun |required(ezcsp__gt(nWeight(1),ezcsp__mn(ezcsp__pl(15,11),11)))| () Bool false)
(define-fun |required(ezcsp__eq(nWeight(3),ezcsp__pl(nWeight(2),41)))| () Bool true)
(define-fun |required(ezcsp__leq(nWeight(1),ezcsp__mn(ezcsp__pl(36,87),36)))| () Bool false)
(define-fun |required(ezcsp__eq(nWeight(7),ezcsp__pl(nWeight(6),36)))| () Bool false)
(define-fun |required(ezcsp__eq(nWeight(2),ezcsp__pl(nWeight(1),11)))| () Bool false)
(define-fun |innerNode(2)| () Bool true)
(define-fun |leafWeightCardinality(1,76,52)| () Bool true)
(define-fun |required(ezcsp__eq(nWeight(1),87))| () Bool false)
(define-fun |leafWeightCardinality(5,97,70)| () Bool true)
(define-fun |required(ezcsp__eq(nWeight(1),108))| () Bool false)
(define-fun |posColor(6,blue)| () Bool false)
(define-fun |required(ezcsp__leq(nWeight(5),ezcsp__mn(ezcsp__pl(98,72),72)))| () Bool false)
(define-fun |coloredPos(5)| () Bool true)
(define-fun |required(ezcsp__eq(nWeight(7),ezcsp__pl(nWeight(6),70)))| () Bool false)
(define-fun |required(ezcsp__eq(nWeight(7),128))| () Bool false)
(define-fun |required(ezcsp__leq(nWeight(4),ezcsp__mn(ezcsp__pl(76,9),9)))| () Bool false)
(define-fun |leafPos(1,3)| () Bool false)
(define-fun |leafPos(3,4)| () Bool false)
(define-fun |required(ezcsp__eq(nWeight(1),26))| () Bool true)
(define-fun |leafPos(1,4)| () Bool false)
(define-fun 483 () Bool false)
(define-fun |label_order(nWeight(3),1)| () Bool true)
(define-fun |required(ezcsp__leq(nWeight(5),ezcsp__mn(ezcsp__pl(97,70),70)))| () Bool false)
(define-fun |required(ezcsp__eq(nWeight(5),ezcsp__pl(nWeight(4),11)))| () Bool false)
(define-fun |required(ezcsp__eq(nWeight(2),170))| () Bool false)
(define-fun |required(ezcsp__leq(nWeight(2),ezcsp__mn(ezcsp__pl(76,9),9)))| () Bool false)
(define-fun |leafPos(8,5)| () Bool true)
(define-fun |required(ezcsp__eq(nWeight(5),170))| () Bool false)
(define-fun |required(ezcsp__leq(nWeight(1),ezcsp__mn(ezcsp__pl(76,9),9)))| () Bool true)
(define-fun |coloredPos(6)| () Bool true)
(define-fun |required(ezcsp__eq(nWeight(7),123))| () Bool false)
(define-fun |location(1)| () Bool true)
(define-fun |required(ezcsp__leq(nWeight(1),ezcsp__mn(ezcsp__pl(9,21),9)))| () Bool false)
(define-fun |required(ezcsp__leq(nWeight(2),ezcsp__mn(ezcsp__pl(36,87),36)))| () Bool false)
(define-fun |leafWeightCardinality(7,76,9)| () Bool true)
(define-fun |required(ezcsp__gt(nWeight(5),ezcsp__mn(ezcsp__pl(87,41),41)))| () Bool false)
(define-fun 151 () Bool true)
(define-fun 152 () Bool true)
(define-fun 157 () Bool true)
(define-fun 156 () Bool true)
(define-fun |required(ezcsp__eq(nWeight(5),ezcsp__pl(nWeight(4),52)))| () Bool false)
(define-fun |required(ezcsp__eq(nWeight(2),ezcsp__pl(nWeight(1),72)))| () Bool false)
(define-fun |required(ezcsp__leq(nWeight(5),ezcsp__mn(ezcsp__pl(76,9),9)))| () Bool false)
(define-fun |required(ezcsp__eq(nWeight(6),ezcsp__pl(nWeight(5),41)))| () Bool false)
(define-fun |required(ezcsp__leq(nWeight(5),ezcsp__mn(ezcsp__pl(15,11),11)))| () Bool false)
(define-fun |required(ezcsp__eq(nWeight(3),128))| () Bool false)
(define-fun |leafPos(5,4)| () Bool true)
(define-fun |required(ezcsp__leq(nWeight(2),ezcsp__mn(ezcsp__pl(98,72),72)))| () Bool false)
(define-fun |required(ezcsp__gt(nWeight(2),ezcsp__mn(ezcsp__pl(9,21),9)))| () Bool false)
(define-fun |leafPos(6,7)| () Bool false)
(define-fun 471 () Bool false)
(define-fun |leafPos(8,2)| () Bool false)
(define-fun |required(ezcsp__leq(nWeight(6),ezcsp__mn(ezcsp__pl(98,72),72)))| () Bool false)
(define-fun |leafPos(4,0)| () Bool false)
(define-fun |required(ezcsp__gt(nWeight(5),ezcsp__mn(ezcsp__pl(76,52),52)))| () Bool false)
(define-fun |coloredPos(1)| () Bool true)
(define-fun |required(ezcsp__eq(nWeight(7),167))| () Bool false)
(define-fun |leafPos(2,3)| () Bool false)
(define-fun |required(ezcsp__gt(nWeight(1),ezcsp__mn(ezcsp__pl(98,72),72)))| () Bool false)
(define-fun 450 () Bool false)
(define-fun |required(ezcsp__eq(nWeight(1),47))| () Bool false)
(define-fun |required(ezcsp__eq(nWeight(1),51))| () Bool false)
(define-fun |required(ezcsp__eq(nWeight(2),123))| () Bool false)
(define-fun 489 () Bool false)
(define-fun 488 () Bool false)
(define-fun 487 () Bool false)
(define-fun 486 () Bool false)
(define-fun 485 () Bool false)
(define-fun 484 () Bool false)
(define-fun |required(ezcsp__eq(nWeight(3),26))| () Bool false)
(define-fun 482 () Bool false)
(define-fun 481 () Bool false)
(define-fun 480 () Bool false)
(define-fun |required(ezcsp__eq(nWeight(6),ezcsp__pl(nWeight(5),11)))| () Bool false)
(define-fun |leafPos(7,7)| () Bool false)
(define-fun |leaf(6)| () Bool true)
(define-fun 472 () Bool false)
(define-fun 473 () Bool false)
(define-fun 470 () Bool false)
(define-fun |required(ezcsp__eq(nWeight(4),128))| () Bool false)
(define-fun 476 () Bool false)
(define-fun 477 () Bool false)
(define-fun 474 () Bool false)
(define-fun 475 () Bool false)
(define-fun 478 () Bool false)
(define-fun 479 () Bool false)
(define-fun |nWeight(5)| () Int 30)
(define-fun |nWeight(1)| () Int 26)
(define-fun |nWeight(4)| () Int 146)
(define-fun |nWeight(2)| () Int 35)
(define-fun |nWeight(7)| () Int 118)
(define-fun |nWeight(3)| () Int 76)
(define-fun |nWeight(6)| () Int 66)
)
